(set-info :source |printed by MathSAT|)
(declare-fun |.x{909}| () Int)
(declare-fun |.x{957}| () Int)
(declare-fun |.x{910}| () (Array Int Int))
(declare-fun |.x{958}| () (Array Int Int))
(declare-fun |.x{911}| () (Array Int Int))
(declare-fun |.x{959}| () (Array Int Int))
(declare-fun |.x{912}| () (Array Int (Array Int Int)))
(declare-fun |.x{960}| () (Array Int (Array Int Int)))
(declare-fun |.x{913}| () (Array Int (Array Int Int)))
(declare-fun |.x{961}| () (Array Int (Array Int Int)))
(declare-fun |.x{914}| () Int)
(declare-fun |.x{962}| () Int)
(declare-fun |.x{915}| () Int)
(declare-fun |.x{963}| () Int)
(declare-fun |.x{916}| () (Array Int Int))
(declare-fun |.x{964}| () (Array Int Int))
(declare-fun |.x{917}| () (Array Int Int))
(declare-fun |.x{965}| () (Array Int Int))
(declare-fun |.x{918}| () Int)
(declare-fun |.x{966}| () Int)
(declare-fun |.x{919}| () Int)
(declare-fun |.x{967}| () Int)
(declare-fun |.x{920}| () Int)
(declare-fun |.x{968}| () Int)
(declare-fun |.x{921}| () Int)
(declare-fun |.x{969}| () Int)
(declare-fun |.x{922}| () Int)
(declare-fun |.x{970}| () Int)
(declare-fun |.x{923}| () Int)
(declare-fun |.x{971}| () Int)
(declare-fun |.x{924}| () Int)
(declare-fun |.x{972}| () Int)
(declare-fun |.x{925}| () Int)
(declare-fun |.x{973}| () Int)
(declare-fun |.x{926}| () Int)
(declare-fun |.x{974}| () Int)
(declare-fun |.x{927}| () Int)
(declare-fun |.x{975}| () Int)
(declare-fun |.x{928}| () Int)
(declare-fun |.x{976}| () Int)
(declare-fun |.x{929}| () Int)
(declare-fun |.x{977}| () Int)
(declare-fun |.x{930}| () Int)
(declare-fun |.x{978}| () Int)
(declare-fun |.x{931}| () Int)
(declare-fun |.x{979}| () Int)
(declare-fun |.x{956}| () Bool)
(declare-fun |.x{932}| () Bool)
(declare-fun |.loc{5}| () Bool)
(declare-fun |.loc{9}| () Bool)
(declare-fun |.loc{6}| () Bool)
(declare-fun |.loc{10}| () Bool)
(declare-fun |.loc{7}| () Bool)
(declare-fun |.loc{11}| () Bool)
(declare-fun |.loc{8}| () Bool)
(declare-fun |.loc{12}| () Bool)
(declare-fun |.x{95}| () (Array Int Int))
(define-fun .def_56 () Bool (! |.loc{5}| :next |.loc{9}|))
(define-fun .def_113 () Bool (not .def_56))
(define-fun .def_58 () Bool (! |.loc{6}| :next |.loc{10}|))
(define-fun .def_107 () Bool (not .def_58))
(define-fun .def_425 () Bool (and .def_107 .def_113))
(define-fun .def_60 () Bool (! |.loc{7}| :next |.loc{11}|))
(define-fun .def_95 () Bool (not .def_60))
(define-fun .def_426 () Bool (and .def_95 .def_425))
(define-fun .def_62 () Bool (! |.loc{8}| :next |.loc{12}|))
(define-fun .def_405 () Bool (not .def_62))
(define-fun .def_427 () Bool (and .def_405 .def_426))
(define-fun .def_54 () Bool (! |.x{956}| :next |.x{932}|))
(define-fun .def_419 () Bool (not .def_54))
(define-fun .def_16 () (Array Int (Array Int Int)) (! |.x{913}| :next |.x{961}|))
(define-fun .def_14 () (Array Int (Array Int Int)) (! |.x{912}| :next |.x{960}|))
(define-fun .def_418 () Bool (= .def_14 .def_16))
(define-fun .def_420 () Bool (and .def_418 .def_419))
(define-fun .def_28 () Int (! |.x{919}| :next |.x{967}|))
(define-fun .def_26 () Int (! |.x{918}| :next |.x{966}|))
(define-fun .def_417 () Bool (= .def_26 .def_28))
(define-fun .def_421 () Bool (and .def_417 .def_420))
(define-fun .def_20 () Int (! |.x{915}| :next |.x{963}|))
(define-fun .def_18 () Int (! |.x{914}| :next |.x{962}|))
(define-fun .def_416 () Bool (= .def_18 .def_20))
(define-fun .def_422 () Bool (and .def_416 .def_421))
(define-fun .def_24 () (Array Int Int) (! |.x{917}| :next |.x{965}|))
(define-fun .def_22 () (Array Int Int) (! |.x{916}| :next |.x{964}|))
(define-fun .def_415 () Bool (= .def_22 .def_24))
(define-fun .def_423 () Bool (and .def_415 .def_422))
(define-fun .def_12 () (Array Int Int) (! |.x{911}| :next |.x{959}|))
(define-fun .def_10 () (Array Int Int) (! |.x{910}| :next |.x{958}|))
(define-fun .def_414 () Bool (= .def_10 .def_12))
(define-fun .def_424 () Bool (and .def_414 .def_423))
(define-fun .def_428 () Bool (! (and .def_424 .def_427) :init true))
(define-fun .def_411 () Bool (= .def_28 |.x{967}|))
(define-fun .def_409 () Bool (= .def_24 |.x{965}|))
(define-fun .def_407 () Bool (= .def_20 |.x{963}|))
(define-fun .def_403 () Bool (= .def_16 |.x{961}|))
(define-fun .def_8 () Int (! |.x{909}| :next |.x{957}|))
(define-fun .def_401 () Bool (= .def_8 |.x{957}|))
(define-fun .def_400 () Bool (= .def_12 |.x{959}|))
(define-fun .def_402 () Bool (and .def_400 .def_401))
(define-fun .def_404 () Bool (and .def_402 .def_403))
(define-fun .def_406 () Bool (and .def_404 .def_405))
(define-fun .def_408 () Bool (and .def_406 .def_407))
(define-fun .def_410 () Bool (and .def_408 .def_409))
(define-fun .def_412 () Bool (and .def_410 .def_411))
(define-fun .def_397 () Bool (= .def_26 |.x{966}|))
(define-fun .def_395 () Bool (= .def_22 |.x{964}|))
(define-fun .def_393 () Bool (= .def_18 |.x{962}|))
(define-fun .def_34 () Int (! |.x{922}| :next |.x{970}|))
(define-fun .def_122 () Bool (= .def_34 |.x{970}|))
(define-fun .def_365 () Bool (and |.x{932}| .def_122))
(define-fun .def_38 () Int (! |.x{924}| :next |.x{972}|))
(define-fun .def_125 () Bool (= .def_38 |.x{972}|))
(define-fun .def_366 () Bool (and .def_125 .def_365))
(define-fun .def_141 () Bool (= .def_10 |.x{958}|))
(define-fun .def_367 () Bool (and .def_141 .def_366))
(define-fun .def_368 () Bool (and .def_113 .def_367))
(define-fun .def_30 () Int (! |.x{920}| :next |.x{968}|))
(define-fun .def_120 () Bool (= .def_30 |.x{968}|))
(define-fun .def_369 () Bool (and .def_120 .def_368))
(define-fun .def_32 () Int (! |.x{921}| :next |.x{969}|))
(define-fun .def_153 () Bool (= .def_32 |.x{969}|))
(define-fun .def_370 () Bool (and .def_153 .def_369))
(define-fun .def_359 () (Array Int Int) (store .def_10 .def_34 0))
(define-fun .def_360 () Bool (= |.x{958}| .def_359))
(define-fun .def_358 () Bool (= |.x{972}| 0))
(define-fun .def_361 () Bool (and .def_358 .def_360))
(define-fun .def_362 () Bool (or .def_54 .def_361))
(define-fun .def_355 () Bool (= |.x{968}| |.x{972}|))
(define-fun .def_356 () Bool (or |.x{932}| .def_355))
(define-fun .def_109 () Bool (= .def_54 |.x{932}|))
(define-fun .def_357 () Bool (and .def_109 .def_356))
(define-fun .def_363 () Bool (and .def_357 .def_362))
(define-fun .def_364 () Bool (and .def_56 .def_363))
(define-fun .def_371 () Bool (or .def_364 .def_370))
(define-fun .def_372 () Bool (and .def_58 .def_371))
(define-fun .def_373 () Bool (and |.loc{12}| .def_372))
(define-fun .def_116 () Bool (not |.loc{10}|))
(define-fun .def_374 () Bool (and .def_116 .def_373))
(define-fun .def_118 () Bool (not |.loc{11}|))
(define-fun .def_375 () Bool (and .def_118 .def_374))
(define-fun .def_376 () Bool (and .def_118 .def_375))
(define-fun .def_36 () Int (! |.x{923}| :next |.x{971}|))
(define-fun .def_170 () Bool (= .def_36 0))
(define-fun .def_346 () Bool (or .def_54 .def_170))
(define-fun .def_97 () Bool (not |.loc{12}|))
(define-fun .def_312 () Bool (and .def_97 .def_122))
(define-fun .def_313 () Bool (and .def_125 .def_312))
(define-fun .def_314 () Bool (and .def_107 .def_313))
(define-fun .def_347 () Bool (and .def_314 .def_346))
(define-fun .def_348 () Bool (and .def_109 .def_347))
(define-fun .def_349 () Bool (and .def_141 .def_348))
(define-fun .def_350 () Bool (and .def_56 .def_349))
(define-fun .def_351 () Bool (and |.loc{10}| .def_350))
(define-fun .def_352 () Bool (and |.loc{11}| .def_351))
(define-fun .def_353 () Bool (and .def_120 .def_352))
(define-fun .def_354 () Bool (and .def_153 .def_353))
(define-fun .def_377 () Bool (or .def_354 .def_376))
(define-fun .def_40 () Int (! |.x{925}| :next |.x{973}|))
(define-fun .def_127 () Bool (= .def_40 |.x{973}|))
(define-fun .def_93 () Bool (= .def_36 |.x{971}|))
(define-fun .def_342 () Bool (and .def_93 .def_127))
(define-fun .def_48 () Int (! |.x{929}| :next |.x{977}|))
(define-fun .def_111 () Bool (= .def_48 |.x{977}|))
(define-fun .def_343 () Bool (and .def_111 .def_342))
(define-fun .def_52 () Int (! |.x{931}| :next |.x{979}|))
(define-fun .def_139 () Bool (= .def_52 |.x{979}|))
(define-fun .def_344 () Bool (and .def_139 .def_343))
(define-fun .def_232 () Bool (not |.loc{9}|))
(define-fun .def_345 () Bool (and .def_232 .def_344))
(define-fun .def_378 () Bool (and .def_345 .def_377))
(define-fun .def_50 () Int (! |.x{930}| :next |.x{978}|))
(define-fun .def_319 () Int (* 4 .def_50))
(define-fun .def_320 () Int (+ .def_32 .def_319))
(define-fun .def_326 () Int (+ .def_320 (- 4)))
(define-fun .def_203 () (Array Int Int) (select .def_14 .def_34))
(define-fun .def_327 () Int (select .def_203 .def_326))
(define-fun .def_328 () Bool (= |.x{979}| .def_327))
(define-fun .def_324 () Bool (= |.x{971}| |.x{977}|))
(define-fun .def_329 () Bool (and .def_324 .def_328))
(define-fun .def_252 () Bool (<= 100000 .def_50))
(define-fun .def_323 () Bool (not .def_252))
(define-fun .def_330 () Bool (and .def_323 .def_329))
(define-fun .def_321 () Int (select .def_203 .def_320))
(define-fun .def_322 () Bool (= |.x{973}| .def_321))
(define-fun .def_331 () Bool (and .def_322 .def_330))
(define-fun .def_316 () Bool (<= |.x{979}| |.x{973}|))
(define-fun .def_317 () Int (ite .def_316 1 0))
(define-fun .def_318 () Bool (= |.x{977}| .def_317))
(define-fun .def_332 () Bool (and .def_318 .def_331))
(define-fun .def_333 () Bool (or .def_54 .def_332))
(define-fun .def_315 () Bool (and .def_109 .def_314))
(define-fun .def_334 () Bool (and .def_315 .def_333))
(define-fun .def_335 () Bool (and .def_141 .def_334))
(define-fun .def_336 () Bool (and .def_113 .def_335))
(define-fun .def_337 () Bool (and |.loc{9}| .def_336))
(define-fun .def_338 () Bool (and |.loc{11}| .def_337))
(define-fun .def_339 () Bool (and .def_116 .def_338))
(define-fun .def_340 () Bool (and .def_120 .def_339))
(define-fun .def_341 () Bool (and .def_153 .def_340))
(define-fun .def_379 () Bool (or .def_341 .def_378))
(define-fun .def_44 () Int (! |.x{927}| :next |.x{975}|))
(define-fun .def_132 () Bool (= .def_44 |.x{975}|))
(define-fun .def_380 () Bool (and .def_132 .def_379))
(define-fun .def_137 () Bool (= .def_50 |.x{978}|))
(define-fun .def_381 () Bool (and .def_137 .def_380))
(define-fun .def_382 () Bool (and .def_60 .def_381))
(define-fun .def_297 () Int (* (- 1) |.x{978}|))
(define-fun .def_298 () Int (+ .def_50 .def_297))
(define-fun .def_299 () Bool (= .def_298 (- 1)))
(define-fun .def_300 () Bool (or |.x{932}| .def_299))
(define-fun .def_123 () Bool (and .def_93 .def_122))
(define-fun .def_177 () Bool (and .def_95 .def_123))
(define-fun .def_178 () Bool (and .def_97 .def_177))
(define-fun .def_179 () Bool (and .def_125 .def_178))
(define-fun .def_301 () Bool (and .def_179 .def_300))
(define-fun .def_302 () Bool (and .def_109 .def_301))
(define-fun .def_303 () Bool (and .def_111 .def_302))
(define-fun .def_304 () Bool (and .def_141 .def_303))
(define-fun .def_305 () Bool (and .def_56 .def_304))
(define-fun .def_306 () Bool (and .def_58 .def_305))
(define-fun .def_307 () Bool (and |.loc{11}| .def_306))
(define-fun .def_308 () Bool (and .def_232 .def_307))
(define-fun .def_309 () Bool (and .def_116 .def_308))
(define-fun .def_310 () Bool (and .def_120 .def_309))
(define-fun .def_311 () Bool (and .def_153 .def_310))
(define-fun .def_383 () Bool (or .def_311 .def_382))
(define-fun .def_293 () Bool (= |.x{978}| 1))
(define-fun .def_294 () Bool (or .def_54 .def_293))
(define-fun .def_237 () Bool (and .def_127 .def_179))
(define-fun .def_282 () Bool (and .def_109 .def_237))
(define-fun .def_283 () Bool (and .def_132 .def_282))
(define-fun .def_284 () Bool (and .def_111 .def_283))
(define-fun .def_285 () Bool (and .def_139 .def_284))
(define-fun .def_286 () Bool (and .def_141 .def_285))
(define-fun .def_287 () Bool (and .def_58 .def_286))
(define-fun .def_288 () Bool (and .def_113 .def_287))
(define-fun .def_289 () Bool (and |.loc{11}| .def_288))
(define-fun .def_290 () Bool (and .def_232 .def_289))
(define-fun .def_291 () Bool (and .def_116 .def_290))
(define-fun .def_292 () Bool (and .def_120 .def_291))
(define-fun .def_295 () Bool (and .def_292 .def_294))
(define-fun .def_296 () Bool (and .def_153 .def_295))
(define-fun .def_384 () Bool (or .def_296 .def_383))
(define-fun .def_124 () Bool (and .def_97 .def_123))
(define-fun .def_126 () Bool (and .def_124 .def_125))
(define-fun .def_155 () Bool (and .def_107 .def_126))
(define-fun .def_156 () Bool (and .def_127 .def_155))
(define-fun .def_268 () Bool (and .def_109 .def_156))
(define-fun .def_269 () Bool (and .def_132 .def_268))
(define-fun .def_270 () Bool (and .def_111 .def_269))
(define-fun .def_271 () Bool (and .def_137 .def_270))
(define-fun .def_272 () Bool (and .def_139 .def_271))
(define-fun .def_273 () Bool (and .def_141 .def_272))
(define-fun .def_274 () Bool (and .def_60 .def_273))
(define-fun .def_275 () Bool (and .def_113 .def_274))
(define-fun .def_276 () Bool (and .def_54 .def_275))
(define-fun .def_277 () Bool (and |.loc{9}| .def_276))
(define-fun .def_278 () Bool (and |.loc{10}| .def_277))
(define-fun .def_279 () Bool (and |.loc{11}| .def_278))
(define-fun .def_280 () Bool (and .def_120 .def_279))
(define-fun .def_281 () Bool (and .def_153 .def_280))
(define-fun .def_385 () Bool (or .def_281 .def_384))
(define-fun .def_253 () Bool (or .def_54 .def_252))
(define-fun .def_254 () Bool (and .def_156 .def_253))
(define-fun .def_255 () Bool (and .def_109 .def_254))
(define-fun .def_256 () Bool (and .def_132 .def_255))
(define-fun .def_257 () Bool (and .def_111 .def_256))
(define-fun .def_258 () Bool (and .def_137 .def_257))
(define-fun .def_259 () Bool (and .def_139 .def_258))
(define-fun .def_260 () Bool (and .def_141 .def_259))
(define-fun .def_261 () Bool (and .def_60 .def_260))
(define-fun .def_262 () Bool (and .def_113 .def_261))
(define-fun .def_263 () Bool (and |.loc{9}| .def_262))
(define-fun .def_264 () Bool (and |.loc{10}| .def_263))
(define-fun .def_265 () Bool (and |.loc{11}| .def_264))
(define-fun .def_266 () Bool (and .def_120 .def_265))
(define-fun .def_267 () Bool (and .def_153 .def_266))
(define-fun .def_386 () Bool (or .def_267 .def_385))
(define-fun .def_238 () Bool (and .def_107 .def_237))
(define-fun .def_239 () Bool (and .def_109 .def_238))
(define-fun .def_240 () Bool (and .def_132 .def_239))
(define-fun .def_241 () Bool (and .def_111 .def_240))
(define-fun .def_242 () Bool (and .def_137 .def_241))
(define-fun .def_243 () Bool (and .def_139 .def_242))
(define-fun .def_244 () Bool (and .def_141 .def_243))
(define-fun .def_245 () Bool (and .def_56 .def_244))
(define-fun .def_246 () Bool (and .def_54 .def_245))
(define-fun .def_247 () Bool (and |.loc{10}| .def_246))
(define-fun .def_248 () Bool (and .def_232 .def_247))
(define-fun .def_249 () Bool (and .def_118 .def_248))
(define-fun .def_250 () Bool (and .def_120 .def_249))
(define-fun .def_251 () Bool (and .def_153 .def_250))
(define-fun .def_387 () Bool (or .def_251 .def_386))
(define-fun .def_46 () Int (! |.x{928}| :next |.x{976}|))
(define-fun .def_212 () Bool (<= 100000 .def_46))
(define-fun .def_220 () Bool (or .def_54 .def_212))
(define-fun .def_221 () Bool (and .def_179 .def_220))
(define-fun .def_222 () Bool (and .def_107 .def_221))
(define-fun .def_223 () Bool (and .def_127 .def_222))
(define-fun .def_224 () Bool (and .def_109 .def_223))
(define-fun .def_225 () Bool (and .def_132 .def_224))
(define-fun .def_226 () Bool (and .def_111 .def_225))
(define-fun .def_227 () Bool (and .def_137 .def_226))
(define-fun .def_228 () Bool (and .def_139 .def_227))
(define-fun .def_229 () Bool (and .def_141 .def_228))
(define-fun .def_230 () Bool (and .def_56 .def_229))
(define-fun .def_231 () Bool (and |.loc{10}| .def_230))
(define-fun .def_233 () Bool (and .def_231 .def_232))
(define-fun .def_234 () Bool (and .def_118 .def_233))
(define-fun .def_235 () Bool (and .def_120 .def_234))
(define-fun .def_236 () Bool (and .def_153 .def_235))
(define-fun .def_388 () Bool (or .def_236 .def_387))
(define-fun .def_134 () Bool (= .def_46 |.x{976}|))
(define-fun .def_42 () Int (! |.x{926}| :next |.x{974}|))
(define-fun .def_129 () Bool (= .def_42 |.x{974}|))
(define-fun .def_218 () Bool (and .def_129 .def_134))
(define-fun .def_145 () Bool (= .def_14 |.x{960}|))
(define-fun .def_219 () Bool (and .def_145 .def_218))
(define-fun .def_389 () Bool (and .def_219 .def_388))
(define-fun .def_213 () Bool (not .def_212))
(define-fun .def_200 () Int (* 4 .def_46))
(define-fun .def_201 () Int (+ .def_32 .def_200))
(define-fun .def_204 () Int (+ .def_201 (- 4)))
(define-fun .def_205 () Int (select .def_203 .def_204))
(define-fun .def_207 () Int (+ .def_205 1))
(define-fun .def_208 () (Array Int Int) (store .def_203 .def_201 .def_207))
(define-fun .def_209 () (Array Int (Array Int Int)) (store .def_14 .def_34 .def_208))
(define-fun .def_210 () Bool (= |.x{960}| .def_209))
(define-fun .def_214 () Bool (and .def_210 .def_213))
(define-fun .def_195 () Int (* (- 1) |.x{976}|))
(define-fun .def_196 () Int (+ .def_46 .def_195))
(define-fun .def_197 () Bool (= .def_196 (- 1)))
(define-fun .def_215 () Bool (and .def_197 .def_214))
(define-fun .def_216 () Bool (or .def_54 .def_215))
(define-fun .def_180 () Bool (and .def_107 .def_179))
(define-fun .def_181 () Bool (and .def_127 .def_180))
(define-fun .def_182 () Bool (and .def_109 .def_181))
(define-fun .def_183 () Bool (and .def_132 .def_182))
(define-fun .def_184 () Bool (and .def_111 .def_183))
(define-fun .def_185 () Bool (and .def_137 .def_184))
(define-fun .def_186 () Bool (and .def_139 .def_185))
(define-fun .def_187 () Bool (and .def_141 .def_186))
(define-fun .def_188 () Bool (and .def_56 .def_187))
(define-fun .def_189 () Bool (and |.loc{9}| .def_188))
(define-fun .def_190 () Bool (and .def_116 .def_189))
(define-fun .def_191 () Bool (and .def_118 .def_190))
(define-fun .def_192 () Bool (and .def_120 .def_191))
(define-fun .def_193 () Bool (and .def_153 .def_192))
(define-fun .def_217 () Bool (and .def_193 .def_216))
(define-fun .def_390 () Bool (or .def_217 .def_389))
(define-fun .def_171 () Bool (not .def_170))
(define-fun .def_172 () Bool (or .def_54 .def_171))
(define-fun .def_157 () Bool (and .def_129 .def_156))
(define-fun .def_158 () Bool (and .def_109 .def_157))
(define-fun .def_159 () Bool (and .def_132 .def_158))
(define-fun .def_160 () Bool (and .def_134 .def_159))
(define-fun .def_161 () Bool (and .def_111 .def_160))
(define-fun .def_162 () Bool (and .def_137 .def_161))
(define-fun .def_163 () Bool (and .def_139 .def_162))
(define-fun .def_164 () Bool (and .def_141 .def_163))
(define-fun .def_165 () Bool (and .def_56 .def_164))
(define-fun .def_166 () Bool (and .def_60 .def_165))
(define-fun .def_167 () Bool (and .def_145 .def_166))
(define-fun .def_168 () Bool (and |.loc{9}| .def_167))
(define-fun .def_169 () Bool (and |.loc{10}| .def_168))
(define-fun .def_173 () Bool (and .def_169 .def_172))
(define-fun .def_174 () Bool (and .def_118 .def_173))
(define-fun .def_175 () Bool (and .def_120 .def_174))
(define-fun .def_176 () Bool (and .def_153 .def_175))
(define-fun .def_391 () Bool (or .def_176 .def_390))
(define-fun .def_128 () Bool (and .def_126 .def_127))
(define-fun .def_130 () Bool (and .def_128 .def_129))
(define-fun .def_131 () Bool (and .def_109 .def_130))
(define-fun .def_133 () Bool (and .def_131 .def_132))
(define-fun .def_135 () Bool (and .def_133 .def_134))
(define-fun .def_136 () Bool (and .def_111 .def_135))
(define-fun .def_138 () Bool (and .def_136 .def_137))
(define-fun .def_140 () Bool (and .def_138 .def_139))
(define-fun .def_142 () Bool (and .def_140 .def_141))
(define-fun .def_143 () Bool (and .def_58 .def_142))
(define-fun .def_144 () Bool (and .def_60 .def_143))
(define-fun .def_146 () Bool (and .def_144 .def_145))
(define-fun .def_147 () Bool (and .def_113 .def_146))
(define-fun .def_148 () Bool (and .def_54 .def_147))
(define-fun .def_149 () Bool (and |.loc{9}| .def_148))
(define-fun .def_150 () Bool (and |.loc{10}| .def_149))
(define-fun .def_151 () Bool (and .def_118 .def_150))
(define-fun .def_152 () Bool (and .def_120 .def_151))
(define-fun .def_154 () Bool (and .def_152 .def_153))
(define-fun .def_392 () Bool (or .def_154 .def_391))
(define-fun .def_394 () Bool (and .def_392 .def_393))
(define-fun .def_396 () Bool (and .def_394 .def_395))
(define-fun .def_398 () Bool (and .def_396 .def_397))
(define-fun .def_102 () Bool (= |.x{966}| 0))
(define-fun .def_101 () Bool (= |.x{962}| 0))
(define-fun .def_103 () Bool (and .def_101 .def_102))
(define-fun .def_99 () (Array Int Int) (store .def_10 0 0))
(define-fun .def_100 () Bool (= |.x{95}| .def_99))
(define-fun .def_104 () Bool (and .def_100 .def_103))
(define-fun .def_105 () Bool (or .def_54 .def_104))
(define-fun .def_87 () Bool (<= |.x{957}| |.x{970}|))
(define-fun .def_88 () Bool (not .def_87))
(define-fun .def_80 () (Array Int Int) (select .def_14 |.x{970}|))
(define-fun .def_81 () (Array Int Int) (store .def_80 |.x{969}| 7))
(define-fun .def_82 () (Array Int (Array Int Int)) (store .def_14 |.x{970}| .def_81))
(define-fun .def_83 () Bool (= |.x{960}| .def_82))
(define-fun .def_76 () (Array Int Int) (store .def_22 |.x{970}| 400000))
(define-fun .def_77 () Bool (= |.x{964}| .def_76))
(define-fun .def_73 () Int (select |.x{95}| |.x{970}|))
(define-fun .def_74 () Bool (= .def_73 0))
(define-fun .def_78 () Bool (and .def_74 .def_77))
(define-fun .def_84 () Bool (and .def_78 .def_83))
(define-fun .def_71 () Bool (= |.x{970}| 0))
(define-fun .def_72 () Bool (not .def_71))
(define-fun .def_85 () Bool (and .def_72 .def_84))
(define-fun .def_69 () (Array Int Int) (store |.x{95}| |.x{970}| 1))
(define-fun .def_70 () Bool (= |.x{958}| .def_69))
(define-fun .def_86 () Bool (and .def_70 .def_85))
(define-fun .def_89 () Bool (and .def_86 .def_88))
(define-fun .def_67 () Bool (= |.x{969}| 0))
(define-fun .def_90 () Bool (and .def_67 .def_89))
(define-fun .def_65 () Bool (= |.x{976}| 1))
(define-fun .def_91 () Bool (and .def_65 .def_90))
(define-fun .def_92 () Bool (or |.x{932}| .def_91))
(define-fun .def_94 () Bool (and .def_92 .def_93))
(define-fun .def_96 () Bool (and .def_94 .def_95))
(define-fun .def_98 () Bool (and .def_96 .def_97))
(define-fun .def_106 () Bool (and .def_98 .def_105))
(define-fun .def_108 () Bool (and .def_106 .def_107))
(define-fun .def_110 () Bool (and .def_108 .def_109))
(define-fun .def_112 () Bool (and .def_110 .def_111))
(define-fun .def_114 () Bool (and .def_112 .def_113))
(define-fun .def_115 () Bool (and |.loc{9}| .def_114))
(define-fun .def_117 () Bool (and .def_115 .def_116))
(define-fun .def_119 () Bool (and .def_117 .def_118))
(define-fun .def_121 () Bool (and .def_119 .def_120))
(define-fun .def_399 () Bool (or .def_121 .def_398))
(define-fun .def_413 () Bool (! (and .def_399 .def_412) :trans true))
(define-fun .def_429 () Bool (and .def_62 .def_426))
(define-fun .def_430 () Bool (and .def_54 .def_429))
(define-fun .def_431 () Bool (! (not .def_430) :invar-property 0))
(assert true)
